<DOCUMENT>
<COLORDEN>-1</COLORDEN>
<TIPOORDEN>-1</TIPOORDEN>
<FILASPAGINA>0</FILASPAGINA>
<VISIBILIDAD>
	<VISIBLECOLUMNA name="idasistentereunion" >0</VISIBLECOLUMNA>
	<VISIBLECOLUMNA name="idreunion" >0</VISIBLECOLUMNA>
	<VISIBLECOLUMNA name="idcliente" >0</VISIBLECOLUMNA>
	<VISIBLECOLUMNA name="nomcliente" >1</VISIBLECOLUMNA>
</VISIBILIDAD>
<HORIZONTALHEADER>AAAA/wAAAAAAAAABAAAAAQAAAAQAAAAAAAAAAAAAAAAEBwAAAAMAAAACAAAAZAAAAAEAAABkAAAAAAAAAGQAAABkAAAABAEBAQAAAAAAAAAAAAAAAABk/////wAAAIQAAAAAAAAABAAAAAAAAAABAAAAAAAAAAAAAAABAAAAAAAAAAAAAAABAAAAAAAAAGQAAAABAAAAAA==</HORIZONTALHEADER>
<COLUMNASHORIZONTALHEADER>AAAA/wAAAAAAAAABAAAAAQAAAAQAAAAAAAAAAAAAAAAEDAAAAAIAAAADAAAAAAAAAAIAAAAAAAAA5QAAAAQAAQEAAAAAAAAAAAABAAAAZP////8AAACEAAAAAAAAAAMAAACBAAAAAQAAAAMAAABkAAAAAQAAAAAAAAAAAAAAAgAAAAA=</COLUMNASHORIZONTALHEADER>
<ORDENCOLUMNAS>
	<ORDENCOLUMNA name="idasistentereunion" >0</ORDENCOLUMNA>
	<ORDENCOLUMNA name="idreunion" >1</ORDENCOLUMNA>
	<ORDENCOLUMNA name="idcliente" >2</ORDENCOLUMNA>
	<ORDENCOLUMNA name="nomcliente" >3</ORDENCOLUMNA>
</ORDENCOLUMNAS>
<VISIBILIDADMENU>1</VISIBILIDADMENU>
</DOCUMENT>
